
n = 8; % the number of jobs
m = 2; % the number of cores

% cpi values of each job
cpi = [
2.325282,2.696614,2.334887,2.619678,
1.392190,0.631348,2.144573,2.097855
];


% ============================================= data for ann ========================================================

input_layer_size = 4;
hidden_layer_size = 2;

% weight
theta1 = array3d(1..m,aRange,xRangeExd, 
[
6.452940476527747, 0.017452427032403902, 1.5823441781922594, 2.29304556914562, 2.1205701299477155, 3.9511254223323777, 12.720648295473962, -19.32780108687333, 5.587887649523427, 9.382981716279655, 3.1068379351696915, 7.5635886871054945, 0.5021157881625241, 0.6370489904707743, 12.035630285866239, -2.9013022475587107, -3.222112105672021, -0.3685666585153925, -0.5622975829530218, -7.378310130776542
]
);



theta2 = 
[| 0.003064451278503977,0.003539191870348419,0.7959491918827863
| 2.3859519552149537,1.222034743822772,-0.3602922851337904
|];
